Cars = 1..200;
Options = 1..5;
Classes = 1..24;
sequenceMinCapacity = [0, 0, 0, 0, 0];
sequenceMaxCapacity = [1, 2, 1, 2, 1];
sequenceSize = [2, 3, 3, 5, 5];
numOrdered = [1, 1, 1, 2, 70, 2, 4, 2, 3, 2, 1, 4, 33, 15, 13, 23, 3, 1, 3, 3, 4, 1, 6, 2];
classHasOption = [|false, false,  true,  true,  true
                  | true,  true,  true, false,  true
                  |false,  true,  true,  true, false
                  |false,  true,  true, false,  true
                  |false,  true, false, false, false
                  |false,  true, false, false,  true
                  |false, false, false,  true,  true
                  | true, false,  true,  true, false
                  | true, false, false, false,  true
                  | true,  true,  true, false, false
                  | true,  true, false,  true, false
                  | true, false,  true, false, false
                  | true, false, false, false, false
                  | true,  true, false, false, false
                  |false, false,  true, false, false
                  |false, false, false,  true, false
                  |false,  true,  true, false, false
                  | true, false, false,  true,  true
                  |false, false,  true,  true, false
                  | true, false, false,  true, false
                  |false,  true, false,  true, false
                  |false, false,  true, false,  true
                  |false, false, false, false,  true
                  | true,  true,  true,  true, false|];
optionOrdering = [1, 3, 5, 2, 4];
